(declare-const b Real)
(declare-const c Real)
(declare-const a Real)
(assert (<= (+ (+ (+ (+ (/ (+ (^ a 2) 1) (+ (^ b 2) 1)) (/ (+ (^ b 2) 1) (+ (^ c 2) 1))) (/ (+ (^ c 2) 1) (+ (^ a 2) 1))) 1) (* 2 (+ (+ (sqrt (/ (+ (^ a 2) 1) (+ (^ c 2) 1))) (sqrt (/ (+ (^ b 2) 1) (+ (^ a 2) 1)))) (sqrt (/ (+ (^ c 2) 1) (+ (^ b 2) 1)))))) (+ (+ (+ (+ (/ (^ a 2) (^ b 2)) (/ (^ b 2) (^ c 2))) (/ (^ c 2) (^ a 2))) 3) (* 2 (+ (+ (/ a c) (/ b a)) (/ c b))))))
(assert (< 0 c))
(assert (< 0 b))
(assert (< 0 a))
(assert (not (<= (^ (+ (+ (+ (sqrt (/ (+ (^ a 2) 1) (+ (^ b 2) 1))) (sqrt (/ (+ (^ b 2) 1) (+ (^ c 2) 1)))) (sqrt (/ (+ (^ c 2) 1) (+ (^ a 2) 1)))) 1) 2) (^ (+ (+ (+ (/ a b) (/ b c)) (/ c a)) 1) 2))))
(check-sat)
(get-model)